956
6662
9119
6150
1599
5459
9326
1837
5492
3756
4313
6485
1526
4585
6565
4066
10187
1565
9441
8994
7272
2211
4273
3670
9368
9775
6470
5780
1465
1514
4820
6849
4705
9524
4560
928
847
7253
8390
8122
1988
2135
8621
7963
1758
9023
5008
910
2249
7589
2584
